69 57 20 14 39 48 36 43 38 27 76 60 78 35 63 82 95 44 1 66 73 55 54 58 88 16 42 83 94 28 34 33 85 93 92 59 52 53 13 86 5 9 32 30 56 91 15 7 71 11 12 64 67 68 79 98 50 72 87 10 19 0 51 49 62 8 75 17 84 70 96 21 65 99 46 97 37 26 23 81 45 18 25 61 77 47 2 80 3 41 31 29 6 40 24 90 89 4 22 74 

